Problem:    exam2018
Rows:       19
Columns:    40 (40 integer, 40 binary)
Non-zeros:  160
Status:     INTEGER OPTIMAL
Objective:  qualificacioTotal = 32 (MAXimum)

   No.   Row name        Activity     Lower bound   Upper bound
------ ------------    ------------- ------------- -------------
     1 qualificacioTotal
                                  32                             
     2 minTasques[p1]
                                   3             2               
     3 minTasques[p2]
                                   2             2               
     4 minTasques[p3]
                                   3             2               
     5 minTasques[p4]
                                   2             2               
     6 maxTasques[p1]
                                   3                           3 
     7 maxTasques[p2]
                                   2                           3 
     8 maxTasques[p3]
                                   3                           3 
     9 maxTasques[p4]
                                   2                           3 
    10 tascaUnaVegada[1]
                                   1             1             = 
    11 tascaUnaVegada[2]
                                   1             1             = 
    12 tascaUnaVegada[3]
                                   1             1             = 
    13 tascaUnaVegada[4]
                                   1             1             = 
    14 tascaUnaVegada[5]
                                   1             1             = 
    15 tascaUnaVegada[6]
                                   1             1             = 
    16 tascaUnaVegada[7]
                                   1             1             = 
    17 tascaUnaVegada[8]
                                   1             1             = 
    18 tascaUnaVegada[9]
                                   1             1             = 
    19 tascaUnaVegada[10]
                                   1             1             = 

   No. Column name       Activity     Lower bound   Upper bound
------ ------------    ------------- ------------- -------------
     1 x[p1,1]      *              1             0             1 
     2 x[p1,2]      *              1             0             1 
     3 x[p1,3]      *              0             0             1 
     4 x[p1,4]      *              0             0             1 
     5 x[p1,5]      *              0             0             1 
     6 x[p1,6]      *              0             0             1 
     7 x[p1,7]      *              0             0             1 
     8 x[p1,8]      *              0             0             1 
     9 x[p1,9]      *              0             0             1 
    10 x[p1,10]     *              1             0             1 
    11 x[p2,1]      *              0             0             1 
    12 x[p2,2]      *              0             0             1 
    13 x[p2,3]      *              0             0             1 
    14 x[p2,4]      *              0             0             1 
    15 x[p2,5]      *              0             0             1 
    16 x[p2,6]      *              0             0             1 
    17 x[p2,7]      *              1             0             1 
    18 x[p2,8]      *              1             0             1 
    19 x[p2,9]      *              0             0             1 
    20 x[p2,10]     *              0             0             1 
    21 x[p3,1]      *              0             0             1 
    22 x[p3,2]      *              0             0             1 
    23 x[p3,3]      *              0             0             1 
    24 x[p3,4]      *              1             0             1 
    25 x[p3,5]      *              1             0             1 
    26 x[p3,6]      *              1             0             1 
    27 x[p3,7]      *              0             0             1 
    28 x[p3,8]      *              0             0             1 
    29 x[p3,9]      *              0             0             1 
    30 x[p3,10]     *              0             0             1 
    31 x[p4,1]      *              0             0             1 
    32 x[p4,2]      *              0             0             1 
    33 x[p4,3]      *              1             0             1 
    34 x[p4,4]      *              0             0             1 
    35 x[p4,5]      *              0             0             1 
    36 x[p4,6]      *              0             0             1 
    37 x[p4,7]      *              0             0             1 
    38 x[p4,8]      *              0             0             1 
    39 x[p4,9]      *              1             0             1 
    40 x[p4,10]     *              0             0             1 

Integer feasibility conditions:

KKT.PE: max.abs.err = 0.00e+00 on row 0
        max.rel.err = 0.00e+00 on row 0
        High quality

KKT.PB: max.abs.err = 0.00e+00 on row 0
        max.rel.err = 0.00e+00 on row 0
        High quality

End of output
